asp/input/in_30_15_7_4.lp
#const n = 30.
#const k = 15.
#const h = 7.
tile(1,6,8).
tile(2,5,6).
tile(3,13,1).
tile(4,4,1).
tile(5,13,1).
tile(6,12,9).
tile(7,3,13).
tile(8,5,11).
tile(9,3,7).
tile(10,12,2).
tile(11,11,1).
tile(12,13,2).
tile(13,13,6).
tile(14,13,3).
tile(15,10,15).
tile(16,15,4).
tile(17,1,3).
tile(18,12,11).
tile(19,2,4).
tile(20,1,8).
tile(21,5,1).
tile(22,8,14).
tile(23,6,4).
tile(24,15,10).
tile(25,4,4).
tile(26,15,6).
tile(27,7,2).
tile(28,2,4).
tile(29,10,10).
tile(30,4,1).
