minizinc/input/in_30_15_7_4.dzn
n = 30;
k = 15;
h = 7;
tiles = array2d(1..n, 1..2,
[ 6,8
, 5,6
, 13,1
, 4,1
, 13,1
, 12,9
, 3,13
, 5,11
, 3,7
, 12,2
, 11,1
, 13,2
, 13,6
, 13,3
, 10,15
, 15,4
, 1,3
, 12,11
, 2,4
, 1,8
, 5,1
, 8,14
, 6,4
, 15,10
, 4,4
, 15,6
, 7,2
, 2,4
, 10,10
, 4,1
]);